s td 18 83 100
b 1 1 2 3 4 5 6 7 8 9 10 11 12 13 14 15 16 17 18 19 21 22 23 24 25 26 27 29 30 31 32 33 34 35 36 37 39 40 42 43 44 45 47 48 50 51 52 53 55 56 57 58 60 61 62 63 65 68 70 71 72 75 76 77 78 79 80 81 83 84 86 88 89 90 91 92 93 94 95 96 97 98 99 100
b 2 1 2 3 4 6 7 8 9 10 11 12 13 14 15 16 17 18 19 21 22 23 24 25 26 27 29 30 31 32 33 34 35 36 37 39 40 42 43 44 45 47 48 49 50 51 52 53 55 56 57 58 60 61 62 63 65 68 70 71 72 75 76 77 78 79 80 81 83 84 86 88 89 90 91 92 93 94 95 96 97 98 99 100
b 3 1 2 3 4 6 7 8 9 10 11 12 13 14 15 17 18 19 21 22 23 24 25 26 27 29 30 31 32 33 34 35 36 37 39 40 41 42 43 44 45 47 48 49 50 51 52 53 55 56 57 58 60 61 62 63 65 68 70 71 72 75 76 77 78 79 80 81 83 84 86 88 89 90 91 92 93 94 95 96 97 98 99 100
b 4 1 2 3 4 6 7 8 9 10 11 12 13 14 15 18 19 20 21 22 23 24 25 26 27 29 30 31 32 33 35 36 37 39 40 41 42 43 44 45 47 48 49 50 51 52 53 55 56 57 58 60 61 62 63 65 68 70 71 72 75 76 77 78 79 80 81 83 84 86 88 89 91 92 93 94 95 96 97 98 99 100
b 5 1 2 3 4 6 7 8 9 10 11 12 13 14 15 18 19 20 21 22 23 24 25 26 27 29 30 31 32 33 35 36 37 39 40 41 42 43 44 45 47 49 50 51 52 53 55 56 57 58 59 60 61 62 63 65 68 70 71 72 75 76 77 78 79 80 81 83 84 86 89 91 92 93 94 95 96 97 98 99 100
b 6 1 2 3 4 6 7 11 13 14 15 18 19 20 21 22 23 24 25 26 27 29 30 31 32 33 35 36 37 39 40 41 42 43 44 45 47 49 50 51 52 53 55 56 57 58 59 60 61 62 63 65 68 70 71 72 75 76 77 78 79 80 81 83 84 85 86 89 91 92 93 94 95 97 98 99 100
b 7 1 2 3 4 6 7 11 13 14 15 19 20 21 22 23 24 25 26 27 29 30 31 32 33 36 37 39 40 42 43 44 45 47 50 51 52 53 55 56 57 58 59 60 61 63 65 67 68 70 72 75 76 77 78 79 80 81 83 84 85 86 91 92 93 94 95 97 98 99 100
b 8 1 2 3 4 6 7 11 13 14 15 19 20 21 22 23 24 25 26 27 29 30 31 32 33 36 37 39 40 42 43 44 45 47 50 51 52 53 55 56 57 58 59 60 61 63 67 68 70 72 76 77 78 79 80 81 82 83 84 85 86 91 92 93 94 95 97 98 99 100
b 9 2 3 4 6 11 13 14 15 19 21 22 23 24 25 26 28 29 30 36 37 39 40 42 43 47 50 51 52 53 55 56 57 58 60 61 63 76 77 80 81 82 85 86 91 93 94 95 97 98 99
b 10 4 8 9 12 13 18 19 21 23 27 33 35 40 41 44 49 56 57 58 59 60 62 66 68 70 72 75 77 81 83 86 93 95 98
b 11 1 2 3 4 5 6 7 8 9 10 11 12 13 14 15 16 17 18 19 21 22 23 24 25 26 27 29 30 31 32 33 34 35 36 37 39 40 43 44 45 47 48 50 51 52 53 55 56 57 58 60 61 62 63 64 65 68 70 71 72 75 76 77 78 79 80 81 83 84 86 88 89 90 91 92 93 94 95 96 97 98 99 100
b 12 1 2 3 4 5 6 8 9 10 11 12 13 14 15 16 17 18 19 21 22 23 24 25 26 27 29 30 31 32 33 34 35 36 37 39 40 43 44 45 46 47 48 50 51 52 53 55 56 57 58 60 61 62 63 64 65 68 70 71 72 75 76 77 78 79 80 81 83 84 86 88 89 90 91 92 93 94 95 96 97 98 99 100
b 13 1 2 3 4 5 6 8 10 11 12 13 14 15 16 17 18 19 21 22 23 24 25 26 27 29 30 31 32 33 34 35 36 37 39 40 43 44 45 46 47 48 50 51 52 53 55 56 57 58 60 61 62 63 64 65 68 70 71 72 74 75 76 77 78 79 80 81 83 84 86 88 89 90 91 92 93 94 95 96 97 98 99 100
b 14 2 3 4 5 6 8 10 11 12 13 14 15 16 18 19 21 22 23 24 25 26 27 29 30 31 32 33 34 35 36 37 38 39 40 43 44 45 46 48 50 51 52 53 55 56 57 58 60 61 62 63 64 65 68 70 71 72 74 75 76 77 78 79 80 81 83 84 86 88 89 90 92 93 94 95 96 97 98 99 100
b 15 2 3 4 5 6 8 10 11 12 13 14 15 16 18 19 21 22 23 24 25 26 27 29 30 31 33 34 35 36 37 38 39 40 43 44 45 46 48 50 51 52 53 55 56 57 58 60 61 62 63 64 68 70 71 72 73 74 75 76 77 78 79 80 81 83 84 86 88 89 90 92 93 94 95 96 97 98 99 100
b 16 2 3 4 5 6 8 10 11 12 13 14 15 16 18 19 21 22 23 24 25 26 27 29 30 31 33 34 35 36 37 38 39 40 43 44 45 46 48 50 51 52 53 54 55 57 58 61 62 63 64 68 70 71 72 73 74 75 76 77 78 79 80 81 83 84 86 88 89 92 93 94 95 96 97 98 99 100
b 17 2 3 4 5 6 8 10 11 13 14 15 16 19 21 22 23 24 25 26 29 30 31 33 35 36 37 38 39 40 43 44 45 46 48 50 51 52 53 54 57 58 61 62 63 64 68 69 70 71 72 74 75 76 77 78 79 80 83 86 89 92 93 94 95 97 98 99 100
b 18 4 5 10 11 13 14 16 21 23 24 25 26 29 31 35 37 39 44 45 50 51 57 58 64 68 69 70 71 72 74 75 79 80 86 87 89 92 94 95 97 98 99 100
1 2
1 11
2 3
3 4
4 5
5 6
5 10
6 7
7 8
8 9
11 12
12 13
13 14
14 15
15 16
16 17
17 18
